$molecule
 1 3
 C     -0.5678900000      0.5193500000     -1.4931700000
 C     -1.8051200000      1.2278600000     -2.0116000000
 C     -0.2998300000     -0.8588100000     -2.0255600000
 H     -1.1488900000     -1.5419000000     -1.8555200000
 H      0.5949200000     -1.3021000000     -1.5632300000
 H     -0.1267300000     -0.8392800000     -3.1202600000
 C      0.6350100000      1.4152300000     -1.3812600000
 H      0.3875400000      2.3665500000     -0.8849100000
 H      1.0251100000      1.6690800000     -2.3862400000
 H      1.4580100000      0.9390100000     -0.8268600000
 C     -2.9332900000      0.3542100000     -2.5310700000
 H     -1.4829600000      1.9179600000     -2.8200900000
 H     -2.1807200000      1.9069600000     -1.2195300000
 H     -2.6119500000     -0.2471500000     -3.3957700000
 H     -3.7811100000      0.9712100000     -2.8625700000
 H     -3.3154300000     -0.3445200000     -1.7689700000
 C     -7.3227900000     -0.9989200000     -0.6498500000
 H     -6.8031500000     -1.1797100000     -1.6026400000
 H     -8.3542200000     -1.3710800000     -0.7477900000
 H     -7.3793300000      0.0920200000     -0.5009600000
 C     -6.6110300000     -1.6716100000      0.5190300000
 H     -6.5885800000     -2.7633800000      0.3368000000
 C     -5.1769300000     -1.2103900000      0.6319700000
 C     -4.1110500000     -2.1157900000      0.5437200000
 H     -4.3296400000     -3.1778400000      0.3816000000
 C     -2.7941200000     -1.6910600000      0.6533000000
 H     -1.9612400000     -2.3980400000      0.5764300000
 C     -2.4995400000     -0.3293800000      0.8565500000
 O     -1.2492000000      0.0903300000      0.9138700000
 H     -0.8455700000      0.2904200000     -0.2226500000
 C     -3.5695400000      0.5824100000      0.9654000000
 H     -3.3349000000      1.6393300000      1.1302000000
 C     -4.8792700000      0.1440600000      0.8569000000
 H     -5.6987100000      0.8683300000      0.9438900000
 C     -7.3776400000     -1.4354200000      1.8268400000
 H     -7.4411000000     -0.3453800000      2.0085600000
 H     -8.4194500000     -1.7714500000      1.6801600000
 C     -6.7649500000     -2.1329600000      3.0242200000
 H     -6.6737900000     -3.2172500000      2.8486100000
 H     -5.7541200000     -1.7516900000      3.2412200000
 H     -7.3699600000     -1.9946400000      3.9317900000
$end

$rem
   job_type = force
   basis = def2-tzvpd
   max_scf_cycles = 100
   gen_scfman = true
   xc_grid = 3
   thresh = 14
   s2thresh = 16
   scf_algorithm = diis
   resp_charges = true
   symmetry = false
   sym_ignore = true
   method = wb97mv
$end
