$molecule
 0 1
 O      3.4645197276     -2.3776533784      0.2399057834
 C      3.1602633374     -1.2725611501      0.2786995932
 O      3.5551029217     -0.3595769821      0.9933458626
 O      1.9681476911     -0.9629857620     -0.5351441701
 O     -0.4628853643      1.4161686189     -0.1942548778
 C     -1.8357753596      1.2855414221      0.2258996670
 O     -2.2596954838      0.2711888361      0.6268863549
 O     -2.3566982960      2.4792145209      0.0411239045
 C      0.2458453230      0.3044381491     -0.1098523143
 C      1.6168630607      0.2875552254     -0.4285049938
 H     -3.2773287715      2.4621199754      0.3067529219
 H     -0.2570111176     -0.5913313850      0.2413740806
 H      2.1635062495      0.8067619830      0.4478031427
 H      1.8330492218      0.8854767766     -1.3225822749
$end

$rem
   job_type = force
   basis = def2-tzvpd
   max_scf_cycles = 100
   gen_scfman = true
   xc_grid = 3
   thresh = 14
   s2thresh = 16
   scf_algorithm = diis
   resp_charges = true
   symmetry = false
   sym_ignore = true
   method = wb97mv
   scf_guess = read
$end
