$molecule
 0 1
 O      3.6789559351     -2.3661804685      0.1580516609
 C      3.1910375770     -1.2477630393      0.2511674996
 O      3.5338971346     -0.2745845808      0.9573041430
 O      2.0422188438     -1.0331223090     -0.5310145278
 O     -0.4708657687      1.3418251460     -0.1590584917
 C     -1.8719733355      1.3056893932      0.2270866567
 O     -2.3819690200      0.3236997880      0.6248027759
 O     -2.2917615790      2.5192729596      0.0175190310
 C      0.1874399263      0.2501879511     -0.0707951418
 C      1.5941337878      0.2530581540     -0.3896990605
 H     -3.2294453106      2.5841437891      0.2543194850
 H     -0.3281229784     -0.6496691159      0.2690616833
 H      2.1126904309      0.7526122317      0.4749492240
 H      1.7916674967      0.8751869507     -1.2722422576
$end

$rem
   job_type = force
   basis = def2-tzvpd
   max_scf_cycles = 100
   gen_scfman = true
   xc_grid = 3
   thresh = 14
   s2thresh = 16
   scf_algorithm = diis
   resp_charges = true
   symmetry = false
   sym_ignore = true
   method = wb97mv
$end