$molecule
 -1 2
 O      3.6813870642     -2.4672844147      0.0243232426
 C      3.2996608844     -1.3015630114      0.2234552097
 O      3.8233049825     -0.4322642361      0.9495936838
 O      2.1134081757     -0.9884685245     -0.4441670793
 O     -0.5781126653      1.3578562513     -0.1469212150
 C     -1.9189846948      1.3346719629      0.1996533585
 O     -2.4610388181      0.3607328954      0.6271210927
 O     -2.3601870255      2.5468695498     -0.0573038848
 C      0.1443882827      0.2345165135     -0.0067257543
 C      1.5867418748      0.3078876538     -0.3208818311
 H     -3.2926526135      2.5999225066      0.1582448495
 H     -0.3281097235     -0.6706832668      0.3626949340
 H      2.0966190602      0.8591761286      0.4869407060
 H      1.7514783563      0.8929868417     -1.2445746322
$end

$rem
   job_type = force
   basis = def2-svpd
   max_scf_cycles = 100
   gen_scfman = true
   xc_grid = 3
   thresh = 14
   s2thresh = 16
   scf_algorithm = diis
   resp_charges = true
   symmetry = false
   sym_ignore = true
   method = b97mv
   solvent_method = pcm
$end

$pcm
   heavypoints 194
   hpoints 194
   radii uff
   theory cpcm
   vdwscale 1.1
$end

$solvent
   dielectric 3.0
$end
