$molecule
 -1 2
 O      3.8197186050     -2.3922103231      0.0076144755
 C      3.3205467601     -1.2889768317      0.2150466542
 O      3.8045244740     -0.3814335803      0.9328510229
 O      2.1384305573     -1.0329352497     -0.4742346665
 O     -0.5817908378      1.3216838492     -0.1238159981
 C     -1.9664046427      1.3751322269      0.2032349432
 O     -2.5383975235      0.3843061071      0.6385660229
 O     -2.3439939347      2.5939129474     -0.0612296376
 C      0.1411078028      0.1711199780      0.0062140691
 C      1.5884039323      0.2510527871     -0.3209374242
 H     -3.2790393683      2.7115302309      0.1384475657
 H     -0.3417336021     -0.7406678637      0.3539410943
 H      2.0598435288      0.7923184825      0.5161136128
 H      1.7366873888      0.8695240895     -1.2203590540
$end

$rem
   job_type = force
   basis = def2-svpd
   max_scf_cycles = 100
   gen_scfman = true
   xc_grid = 3
   thresh = 14
   s2thresh = 16
   scf_algorithm = diis
   resp_charges = true
   symmetry = false
   sym_ignore = true
   method = b97mv
   solvent_method = pcm
$end

$pcm
   heavypoints 194
   hpoints 194
   radii uff
   theory cpcm
   vdwscale 1.1
$end

$solvent
   dielectric 3.0
$end
