$molecule
 0 1
 O      3.6739929336     -2.4420828167      0.0728734115
 C      3.2303721993     -1.2926437986      0.2311588368
 O      3.7388204185     -0.4136110559      0.9606165075
 O      2.0851327493     -1.0004503670     -0.4723190586
 O     -0.4957577464      1.3413799175     -0.1598355245
 C     -1.9130538640      1.3114650190      0.2178494449
 O     -2.4155908767      0.3388945331      0.6452903859
 O     -2.3271320136      2.5054585706     -0.0399653440
 C      0.1703606741      0.2798514785     -0.0352552296
 C      1.5900370634      0.3007763468     -0.3524057470
 H     -3.3666815755      2.5835192322      0.2075577449
 H     -0.3402712436     -0.6332318825      0.3363657234
 H      2.0756430616      0.8517962088      0.4823386797
 H      1.7705992704      0.9064430032     -1.2629714065
$end

$rem
   job_type = force
   basis = def2-tzvpd
   max_scf_cycles = 100
   gen_scfman = true
   xc_grid = 3
   thresh = 14
   s2thresh = 16
   scf_algorithm = diis
   resp_charges = true
   symmetry = false
   sym_ignore = true
   method = wb97mv
$end
