$molecule
 -1 2
 O      3.0246247735     -1.9035343582      0.3268732957
 C      2.5092707315     -0.9438668236      0.2509522679
 O      2.7439255631     -0.0156860776      0.7615538898
 O      1.6325132533     -0.8693943383     -0.4234011741
 O     -0.2350479557      1.3623486155     -0.1735554915
 C     -1.1660460891      1.2024078047      0.1317989586
 O     -1.3708115936      0.1578461911      0.4215818527
 O     -1.7002175164      2.1369537816      0.0750219949
 C      0.2646773154      0.4071510671     -0.1212835431
 C      1.2956145348      0.1658996858     -0.3456460092
 H     -2.6870901754      1.7734380070      0.4398557746
 H     -0.4751116556     -0.3475424066      0.2389879042
 H      1.9492436853      0.6679634686      0.3539944571
 H      1.6884796883      0.8797421639     -1.0880320799
$end

$rem
   job_type = force
   basis = def2-svpd
   max_scf_cycles = 200
   gen_scfman = true
   xc_grid = 3
   thresh = 14
   s2thresh = 16
   scf_algorithm = gdm
   resp_charges = true
   symmetry = false
   sym_ignore = true
   method = wb97mv
$end
