$molecule
 -1 2
 O      3.6751046700     -2.4449390300      0.0724869500
 C      3.2299596000     -1.2925316900      0.2309119800
 O      3.7402049800     -0.4115388900      0.9624584100
 O      2.0839997700     -1.0021814300     -0.4737447200
 O     -0.4957200900      1.3440421800     -0.1605945900
 C     -1.9124744400      1.3103479900      0.2180457700
 O     -2.4167108400      0.3368904000      0.6461958200
 O     -2.3337187700      2.5085880200     -0.0392047900
 C      0.1693166900      0.2754166100     -0.0339135700
 C      1.5920452700      0.3047732100     -0.3531538100
 H     -3.2814989800      2.5805870200      0.1862182200
 H     -0.3336208600     -0.6255773600      0.3325537800
 H      2.0726418700      0.8504483600      0.4820708400
 H      1.7683742700      0.9000314600     -1.2588776100
$end

$rem
   job_type = force
   basis = def2-svpd
   max_scf_cycles = 100
   gen_scfman = true
   xc_grid = 3
   thresh = 14
   s2thresh = 16
   scf_algorithm = gdm
   resp_charges = true
   symmetry = false
   sym_ignore = true
   method = b97mv
   solvent_method = smd
   ideriv = 1
   mem_total = 170000
$end

$smx
   solvent water
$end
