I2                                      
    1.000000000000000     
     2.8804273910367688    0.0000000000000000    0.0000000000000002
     0.0000000000000007    4.1967019180415601    0.0000000000000003
     0.0000000000000000    0.0000000000000000    7.4132498729335783
   I 
     2
Direct
  0.0000000000000000  0.5000000000000000  0.0000000000000000
  0.5000000000000000  0.0000000000000000  0.5000000000000000
 
  0.00000000E+00  0.00000000E+00  0.00000000E+00
  0.00000000E+00  0.00000000E+00  0.00000000E+00
