I2
1.0
   2.8804273910367688    0.0000000000000000    0.0000000000000002
   0.0000000000000007    4.1967019180415601    0.0000000000000003
   0.0000000000000000    0.0000000000000000    7.4132498729335783
I
2
direct
   0.0000000000000000    0.5000000000000000    0.0000000000000000 I
   0.5000000000000000    0.0000000000000000    0.5000000000000000 I

