$molecule
 0 1
 O      3.1747166878     -1.8761613220      0.3241755413
 C      2.5623398971     -0.9629541221      0.2152699519
 O      2.6917494322      0.0286388700      0.6888071268
 O      1.7078315257     -0.9385354547     -0.4512483916
 O     -0.2739262951      1.2846770512     -0.1315447869
 C     -1.2583278768      1.2093556219      0.1534866083
 O     -1.5556946323      0.1814264264      0.4365279969
 O     -1.7272051344      2.2026433269      0.0846524712
 C      0.2816335836      0.3451746746     -0.1168951997
 C      1.2928519574      0.0897707638     -0.3339707706
 H     -2.7680840353      1.9627020083      0.4169615762
 H     -0.4460497369     -0.4405154969      0.2068138780
 H      2.0590747293      0.7274126792      0.2171836781
 H      1.8037000328      0.9583259850     -0.8569089051
$end

$rem
   job_type = force
   basis = def2-tzvpd
   max_scf_cycles = 100
   gen_scfman = true
   xc_grid = 3
   thresh = 14
   s2thresh = 16
   scf_algorithm = diis
   resp_charges = true
   symmetry = false
   sym_ignore = true
   method = wb97mv
$end
