$molecule
 0 1
 O      3.6739929089     -2.4420827642      0.0728734080
 C      3.2303722720     -1.2926439842      0.2311588525
 O      3.7388203379     -0.4136113125      0.9606163717
 O      2.0851327994     -1.0004504144     -0.4723189343
 O     -0.4957577564      1.3413796380     -0.1598354995
 C     -1.9130527786      1.3114645217      0.2178493672
 O     -2.4155906318      0.3388944683      0.6452903894
 O     -2.3271330122      2.5054444522     -0.0399612334
 C      0.1703605077      0.2798512105     -0.0352551910
 C      1.5900369330      0.3007758153     -0.3524052559
 H     -3.3666816802      2.5837357310      0.2074992815
 H     -0.3402703880     -0.6332333118      0.3363655513
 H      2.0756443989      0.8517945015      0.4823392960
 H      1.7705989921      0.9064398101     -1.2629733437
$end

$rem
   job_type = force
   basis = def2-tzvpd
   max_scf_cycles = 100
   gen_scfman = true
   xc_grid = 3
   thresh = 14
   s2thresh = 16
   scf_algorithm = diis
   resp_charges = true
   symmetry = false
   sym_ignore = true
   method = wb97mv
$end
