INCAR created by Atomic Simulation Environment
 ENCUT = 450.000000
 SIGMA = 0.050000
 EDIFF = 1.00e-05
 EDIFFG = -3.00e-02
 ALGO = fast
 GGA = RP
 PREC = accurate
 IBRION = 2
 ISIF = 2
 ISMEAR = 0
 ISYM = 0
 KPAR = 16
 LMAXMIX = 4
 LORBIT = 11
 NELM = 120
 NSW = 200
 IVDW = 0
 NCORE = 4
 LASPH = .TRUE.
 LCHARG = .FALSE.
 LWAVE = .FALSE.
 ISPIN = 2
 MAGMOM = 16*1.0000 
