Na Pd 
 1.0000000000000000
     7.2315800000000001    0.0000000000000000    0.0000000000000004
     0.0000000000000012    7.2315800000000001    0.0000000000000004
     0.0000000000000000    0.0000000000000000    7.2315800000000001
 Na  Pd 
  12   4
Cartesian
  1.8078950000000009  5.4236849999999999  5.4236849999999999
  1.8078950000000003  1.8078950000000000  5.4236849999999999
  3.6157900000000001  0.0000000000000000  0.0000000000000002
  1.8078950000000003  1.8078950000000000  1.8078950000000003
  1.8078950000000009  5.4236849999999999  1.8078950000000005
  3.6157900000000005  3.6157900000000001  3.6157900000000005
  5.4236850000000008  5.4236849999999999  1.8078950000000007
  5.4236849999999999  1.8078950000000000  1.8078950000000005
  0.0000000000000000  0.0000000000000000  3.6157900000000001
  5.4236849999999999  1.8078950000000000  5.4236849999999999
  5.4236850000000008  5.4236849999999999  5.4236850000000008
  0.0000000000000006  3.6157900000000001  0.0000000000000002
  0.0000000000000000  0.0000000000000000  0.0000000000000000
  0.0000000000000006  3.6157900000000001  3.6157900000000001
  3.6157900000000001  0.0000000000000000  3.6157900000000001
  3.6157900000000005  3.6157900000000001  0.0000000000000004
