$molecule
 0 1
 C     -2.2327219082      0.3791393294      0.2143702282
 O     -0.4001040911     -0.3209141098     -0.1334138299
 C      0.5423733258      0.2977790640      0.2206586158
 O      0.3924968984      1.4585347680      0.7033089993
 O     -2.8376665474     -0.0973158207     -0.6674694144
 O     -1.7015955091      1.7258053313      0.1289163517
 H     -0.5810710172      1.5729449388      0.5275661907
 C      1.8860908742     -0.2457908005      0.0738796537
 C     -2.2383734832     -0.0934887378      1.6277789473
 H     -2.4617721877      2.3579851511      0.6488511867
 H      1.8010691866     -1.3457375140     -0.0557562494
 H      2.5419651710      0.0138395515      0.9320914408
 H      2.3352038754      0.1921439154     -0.8423775733
 H     -1.3918401900      0.3251951235      2.2131306207
 H     -2.2407267711     -1.2034273556      1.6755719861
 H     -3.1861276262      0.2835871654      2.0670628463
$end

$rem
   basis = def2-svpd
   gen_scfman = true
   job_type = force
   max_scf_cycles = 100
   method = wb97mv
   resp_charges = true
   s2thresh = 16
   scf_algorithm = diis
   sym_ignore = true
   symmetry = false
   thresh = 14
   xc_grid = 3
$end
