$molecule
 -1 2
 C     -2.0137704788     -0.1270734858      0.1642010188
 O     -0.5995953068     -0.2921342976     -0.1231428019
 C      0.5061642245      0.4275172940      0.2730711793
 O      0.5334437588      1.4727239578      0.7474905023
 O     -2.8412706626     -0.2099655589     -0.6873946438
 O     -1.8288928518      2.0165855272      0.0417843943
 H     -1.3429919048      2.3740186237      0.3845744402
 C      1.8193658177     -0.3037461746      0.0198838218
 C     -2.2672351085     -0.1210357673      1.6552929612
 H     -2.4429538836      2.6113929006      0.7209957866
 H      1.7385359612     -1.3967031272     -0.0862781690
 H      2.4755055076     -0.0345738984      0.8626997493
 H      2.2676650535      0.1131019024     -0.8976730188
 H     -1.4518547674      0.3782355629      2.2010561136
 H     -2.2382992481     -1.2010725621      1.8946348321
 H     -3.2610161107      0.2842091034      1.9133738342
$end

$rem
   basis = def2-tzvpd
   gen_scfman = true
   job_type = force
   max_scf_cycles = 200
   method = wb97mv
   resp_charges = true
   s2thresh = 16
   scf_algorithm = gdm
   sym_ignore = true
   symmetry = false
   thresh = 14
   xc_grid = 3
$end
